Automatically generated mesh
     121
Reciprocal lattice
   -0.100000000000000    -0.100000000000000    0.000000000000000             1
   -0.100000000000000    -0.080000000000000    0.000000000000000             1
   -0.100000000000000    -0.060000000000000    0.000000000000000             1
   -0.100000000000000    -0.040000000000000    0.000000000000000             1
   -0.100000000000000    -0.020000000000000    0.000000000000000             1
   -0.100000000000000    0.000000000000000    0.000000000000000             1
   -0.100000000000000    0.020000000000000    0.000000000000000             1
   -0.100000000000000    0.040000000000000    0.000000000000000             1
   -0.100000000000000    0.060000000000000    0.000000000000000             1
   -0.100000000000000    0.080000000000000    0.000000000000000             1
   -0.100000000000000    0.100000000000000    0.000000000000000             1
   -0.080000000000000    -0.100000000000000    0.000000000000000             1
   -0.080000000000000    -0.080000000000000    0.000000000000000             1
   -0.080000000000000    -0.060000000000000    0.000000000000000             1
   -0.080000000000000    -0.040000000000000    0.000000000000000             1
   -0.080000000000000    -0.020000000000000    0.000000000000000             1
   -0.080000000000000    0.000000000000000    0.000000000000000             1
   -0.080000000000000    0.020000000000000    0.000000000000000             1
   -0.080000000000000    0.040000000000000    0.000000000000000             1
   -0.080000000000000    0.060000000000000    0.000000000000000             1
   -0.080000000000000    0.080000000000000    0.000000000000000             1
   -0.080000000000000    0.100000000000000    0.000000000000000             1
   -0.060000000000000    -0.100000000000000    0.000000000000000             1
   -0.060000000000000    -0.080000000000000    0.000000000000000             1
   -0.060000000000000    -0.060000000000000    0.000000000000000             1
   -0.060000000000000    -0.040000000000000    0.000000000000000             1
   -0.060000000000000    -0.020000000000000    0.000000000000000             1
   -0.060000000000000    0.000000000000000    0.000000000000000             1
   -0.060000000000000    0.020000000000000    0.000000000000000             1
   -0.060000000000000    0.040000000000000    0.000000000000000             1
   -0.060000000000000    0.060000000000000    0.000000000000000             1
   -0.060000000000000    0.080000000000000    0.000000000000000             1
   -0.060000000000000    0.100000000000000    0.000000000000000             1
   -0.040000000000000    -0.100000000000000    0.000000000000000             1
   -0.040000000000000    -0.080000000000000    0.000000000000000             1
   -0.040000000000000    -0.060000000000000    0.000000000000000             1
   -0.040000000000000    -0.040000000000000    0.000000000000000             1
   -0.040000000000000    -0.020000000000000    0.000000000000000             1
   -0.040000000000000    0.000000000000000    0.000000000000000             1
   -0.040000000000000    0.020000000000000    0.000000000000000             1
   -0.040000000000000    0.040000000000000    0.000000000000000             1
   -0.040000000000000    0.060000000000000    0.000000000000000             1
   -0.040000000000000    0.080000000000000    0.000000000000000             1
   -0.040000000000000    0.100000000000000    0.000000000000000             1
   -0.020000000000000    -0.100000000000000    0.000000000000000             1
   -0.020000000000000    -0.080000000000000    0.000000000000000             1
   -0.020000000000000    -0.060000000000000    0.000000000000000             1
   -0.020000000000000    -0.040000000000000    0.000000000000000             1
   -0.020000000000000    -0.020000000000000    0.000000000000000             1
   -0.020000000000000    0.000000000000000    0.000000000000000             1
   -0.020000000000000    0.020000000000000    0.000000000000000             1
   -0.020000000000000    0.040000000000000    0.000000000000000             1
   -0.020000000000000    0.060000000000000    0.000000000000000             1
   -0.020000000000000    0.080000000000000    0.000000000000000             1
   -0.020000000000000    0.100000000000000    0.000000000000000             1
   0.000000000000000    -0.100000000000000    0.000000000000000             1
   0.000000000000000    -0.080000000000000    0.000000000000000             1
   0.000000000000000    -0.060000000000000    0.000000000000000             1
   0.000000000000000    -0.040000000000000    0.000000000000000             1
   0.000000000000000    -0.020000000000000    0.000000000000000             1
   0.000000000000000    0.000000000000000    0.000000000000000             1
   0.000000000000000    0.020000000000000    0.000000000000000             1
   0.000000000000000    0.040000000000000    0.000000000000000             1
   0.000000000000000    0.060000000000000    0.000000000000000             1
   0.000000000000000    0.080000000000000    0.000000000000000             1
   0.000000000000000    0.100000000000000    0.000000000000000             1
   0.020000000000000    -0.100000000000000    0.000000000000000             1
   0.020000000000000    -0.080000000000000    0.000000000000000             1
   0.020000000000000    -0.060000000000000    0.000000000000000             1
   0.020000000000000    -0.040000000000000    0.000000000000000             1
   0.020000000000000    -0.020000000000000    0.000000000000000             1
   0.020000000000000    0.000000000000000    0.000000000000000             1
   0.020000000000000    0.020000000000000    0.000000000000000             1
   0.020000000000000    0.040000000000000    0.000000000000000             1
   0.020000000000000    0.060000000000000    0.000000000000000             1
   0.020000000000000    0.080000000000000    0.000000000000000             1
   0.020000000000000    0.100000000000000    0.000000000000000             1
   0.040000000000000    -0.100000000000000    0.000000000000000             1
   0.040000000000000    -0.080000000000000    0.000000000000000             1
   0.040000000000000    -0.060000000000000    0.000000000000000             1
   0.040000000000000    -0.040000000000000    0.000000000000000             1
   0.040000000000000    -0.020000000000000    0.000000000000000             1
   0.040000000000000    0.000000000000000    0.000000000000000             1
   0.040000000000000    0.020000000000000    0.000000000000000             1
   0.040000000000000    0.040000000000000    0.000000000000000             1
   0.040000000000000    0.060000000000000    0.000000000000000             1
   0.040000000000000    0.080000000000000    0.000000000000000             1
   0.040000000000000    0.100000000000000    0.000000000000000             1
   0.060000000000000    -0.100000000000000    0.000000000000000             1
   0.060000000000000    -0.080000000000000    0.000000000000000             1
   0.060000000000000    -0.060000000000000    0.000000000000000             1
   0.060000000000000    -0.040000000000000    0.000000000000000             1
   0.060000000000000    -0.020000000000000    0.000000000000000             1
   0.060000000000000    0.000000000000000    0.000000000000000             1
   0.060000000000000    0.020000000000000    0.000000000000000             1
   0.060000000000000    0.040000000000000    0.000000000000000             1
   0.060000000000000    0.060000000000000    0.000000000000000             1
   0.060000000000000    0.080000000000000    0.000000000000000             1
   0.060000000000000    0.100000000000000    0.000000000000000             1
   0.080000000000000    -0.100000000000000    0.000000000000000             1
   0.080000000000000    -0.080000000000000    0.000000000000000             1
   0.080000000000000    -0.060000000000000    0.000000000000000             1
   0.080000000000000    -0.040000000000000    0.000000000000000             1
   0.080000000000000    -0.020000000000000    0.000000000000000             1
   0.080000000000000    0.000000000000000    0.000000000000000             1
   0.080000000000000    0.020000000000000    0.000000000000000             1
   0.080000000000000    0.040000000000000    0.000000000000000             1
   0.080000000000000    0.060000000000000    0.000000000000000             1
   0.080000000000000    0.080000000000000    0.000000000000000             1
   0.080000000000000    0.100000000000000    0.000000000000000             1
   0.100000000000000    -0.100000000000000    0.000000000000000             1
   0.100000000000000    -0.080000000000000    0.000000000000000             1
   0.100000000000000    -0.060000000000000    0.000000000000000             1
   0.100000000000000    -0.040000000000000    0.000000000000000             1
   0.100000000000000    -0.020000000000000    0.000000000000000             1
   0.100000000000000    0.000000000000000    0.000000000000000             1
   0.100000000000000    0.020000000000000    0.000000000000000             1
   0.100000000000000    0.040000000000000    0.000000000000000             1
   0.100000000000000    0.060000000000000    0.000000000000000             1
   0.100000000000000    0.080000000000000    0.000000000000000             1
   0.100000000000000    0.100000000000000    0.000000000000000             1
